M = 4;

p = [2,1,1,1];


cc = [|1,1,1,1,
      |1,1,1,1,
      |1,1,1,1,
      |1,1,1,1|];

% cc = [|1,1,10,100,
%      |1,1,100,100,
%      |10,100,1,1,
%      |100,100,1,1|];

InvRref= 4;
Pfrom = 1;
Pto = 1;